proyfinal/src/viki/013/experimentInOfficeAgust.take6.output/7104d091-3e64-4217-8888-6466d112e214.als.dat
{'cnf.clauses': '118081',
 'cnf.totvars': '69608',
 'conflict literals': '93',
 'conflicts': '29',
 'decisions': '11962',
 'memused.mb': '18.28',
 'outcome': 'UNSAT',
 'propagations': '43937',
 'restarts': '1',
 'solver.msecs': 30,
 'task.msecs': 73}
