proyfinal/src/viki/013/experimentInOfficeAgust.take6.output/7104d091-3e64-4217-8888-6466d112e214.als.out
Reading from standard input... Use '--help' for help.
============================[ Problem Statistics ]=============================
|                                                                             |
|  Number of variables:         69608                                         |
|  Number of clauses:          118081                                         |
|  Parse time:                   0.02 s                                       |
|                                                                             |
============================[ Search Statistics ]==============================
| Conflicts |          ORIGINAL         |          LEARNT          | Progress |
|           |    Vars  Clauses Literals |    Limit  Clauses Lit/Cl |          |
===============================================================================
===============================================================================
restarts              : 1
conflicts             : 29             (963 /sec)
decisions             : 11962          (0.00 % random) (397237 /sec)
propagations          : 43937          (1459071 /sec)
conflict literals     : 93             (0.00 % deleted)
Memory used           : 18.28 MB
CPU time              : 0.030113 s

UNSATISFIABLE
